p wcnf 11 42 12
1 3 4 0
1 -3 -4 0
1 3 8 0
1 -3 -8 0
1 7 8 0
1 -7 -8 0
1 2 8 0
1 -2 -8 0
1 4 8 0
1 -4 -8 0
1 8 11 0
1 -8 -11 0
1 7 9 0
1 -7 -9 0
1 9 10 0
1 -9 -10 0
1 4 11 0
1 -4 -11 0
1 1 11 0
1 -1 -11 0
1 5 8 0
1 -5 -8 0
1 7 10 0
1 -7 -10 0
1 2 5 0
1 -2 -5 0
1 1 4 0
1 -1 -4 0
1 2 11 0
1 -2 -11 0
1 8 10 0
1 -8 -10 0
1 1 3 0
1 -1 -3 0
1 4 10 0
1 -4 -10 0
1 6 8 0
1 -6 -8 0
1 9 11 0
1 -9 -11 0
1 10 11 0
1 -10 -11 0
